NAME : cgl_76.9399.tour
COMMENT : Length = 9399
COMMENT : Found by LKH-3 [Keld Helsgaun] Thu Jun 26 21:26:50 2025
TYPE : TOUR
DIMENSION : 77
TOUR_SECTION
68
67
69
70
71
72
76
75
33
35
37
36
34
38
39
40
41
44
42
43
46
45
32
29
31
30
26
24
25
23
22
21
27
28
20
19
18
17
16
15
14
13
10
12
11
4
7
8
6
5
9
2
1
3
74
73
77
59
58
60
61
57
56
54
55
53
63
62
64
52
51
50
66
65
48
49
47
-1
EOF
